
NODE_COORD_SECTION
A  24.78       96.82
B  18.63       94.17
C  19.75       92.07
D  23.14       93.98
E  26.37       97.91
F  25.84       96.46
G  19.92       97.58
H  18.05       96.73
I  19.92       97.84
J  19.27       98.76
K  17.68       97.89
L  20.95       95.01
M  18.84       97.49
N  19.52       94.02
EOF
